(set-info :smt-lib-version 2.6)
(set-logic QF_SLIA)
(set-info :source |
Generated by: Joel Day, Thorsten Ehlers, Mitja Kulczynski, Federico Mora, Florin Manea, Dirk Nowotka, Danny Poulsen, Zhengyang Lu
Application: Test WOORPJE
Target solver: WOORPJE
Publications: Day, J. D., Ehlers, T., Kulczynski, M., Manea, F., Nowotka, D., & Poulsen, D. B. (2019). On solving word equations using SAT. In RP 2019
Description: Enriches a system of 30 word equations by suitable linear constraints
|)
(set-info :license "https://creativecommons.org/licenses/by/4.0/")
(set-info :category "random")
(set-info :status unknown)

(declare-fun H () String)
(declare-fun C () String)
(declare-fun G () String)
(assert (= (str.++  "cdfaefabdfa" C "ba")  (str.++  "cdfaefabdfabcaafa" G "ba") ))
(assert (= (str.++  "bcedddafafccaffdbfbbeaadebfc" H "febcab")  (str.++  "bcedddafafccaffdbfbbeaadebfcabdfabfebcab" "") ))
(assert (= (str.++  "dbdafdfbebafbdfcd" H "bfecfebeebeaebdef")  (str.++  "dbdafdfbebafbdfcdabdfabbfecfebeebeaebdef" "") ))
(assert (>=(* (str.len C) 10) 130))
(assert (>=(* (str.len H) 5) 5))
(assert (>=(* (str.len G) 1) 11))
(check-sat)

(exit)
